NAME          COPTPROB
OBJSENSE
  MIN
ROWS
 N  __OBJ___
 L  C26     
 L  C119    
 L  C214    
 L  C239    
 L  C256    
 L  C269    
 L  C315    
 L  C361    
 L  C371    
 L  C395    
 L  C414    
 L  C469    
 L  C472    
 L  C548    
COLUMNS
    MARKER    'MARKER'                 'INTORG'
    x35       __OBJ___  -1
    x35       C26       1
    x35       C361      1
    x39       __OBJ___  -1
    x39       C119      1
    x39       C361      1
    x45       __OBJ___  -1
    x45       C26       1
    x45       C472      1
    x50       __OBJ___  -1
    x50       C315      1
    x50       C548      1
    x123      __OBJ___  -1
    x123      C239      1
    x123      C395      1
    x123      C548      1
    x131      __OBJ___  -1
    x131      C119      1
    x131      C214      1
    x153      __OBJ___  -1
    x153      C256      1
    x153      C395      1
    x216      __OBJ___  -1
    x216      C371      1
    x216      C469      1
    x216      C472      1
    x240      __OBJ___  -1
    x240      C214      1
    x240      C269      1
    x241      __OBJ___  -1
    x241      C239      1
    x241      C269      1
    x289      __OBJ___  -1
    x289      C414      1
    x289      C469      1
    x294      __OBJ___  -1
    x294      C256      1
    x294      C414      1
    x295      __OBJ___  -1
    x295      C315      1
    x295      C371      1
    MARKER    'MARKER'                 'INTEND'
RHS
    RHS       __OBJ___  159
    RHS       C26       1
    RHS       C119      1
    RHS       C214      1
    RHS       C239      1
    RHS       C256      1
    RHS       C269      1
    RHS       C315      1
    RHS       C361      1
    RHS       C371      1
    RHS       C395      1
    RHS       C414      1
    RHS       C469      1
    RHS       C472      1
    RHS       C548      1
BOUNDS
 UP BOUND     x35       1
 UP BOUND     x39       1
 UP BOUND     x45       1
 UP BOUND     x50       1
 UP BOUND     x123      1
 UP BOUND     x131      1
 UP BOUND     x153      1
 UP BOUND     x216      1
 UP BOUND     x240      1
 UP BOUND     x241      1
 UP BOUND     x289      1
 UP BOUND     x294      1
 UP BOUND     x295      1
ENDATA
